Route #1: 20 116 107 54 71 96 84 55 93 16 80 29 31 38 94 119 61 10 88 52 50
Route #2: 73 25 67 30 33 118 79 42 39 78 8 114 6 40 72 87 62 112 3 45 70
Route #3: 32 91 21 12 49 2 43 76 113 13 98 64 109 90 92 35 11 27 34 111 102
Route #4: 36 115 14 23 58 83 15 44 28 19 75 26 5 85 41 103 17 18 9 99 82
Route #5: 53 81 69 68 60 95 4 89 51 63 104 105 101 47 117 108 66 46 97 7 106
Route #6: 48 86 65 74 110 22 59 100 77 57 37 24 1 56
Cost 16300
